c Reduced graph for r27_0 generated by Cyril Grelier
p edge 259 3019
e 1 2
e 1 3
e 1 4
e 1 7
e 1 10
e 1 13
e 1 14
e 1 17
e 1 18
e 1 21
e 1 23
e 1 26
e 1 30
e 1 33
e 1 34
e 1 35
e 1 36
e 1 41
e 1 49
e 1 52
e 1 53
e 1 54
e 1 79
e 1 80
e 1 84
e 1 96
e 1 125
e 1 126
e 1 166
e 1 202
e 2 3
e 2 5
e 2 8
e 2 11
e 2 15
e 2 17
e 2 19
e 2 22
e 2 24
e 2 28
e 2 31
e 2 33
e 2 34
e 2 35
e 2 36
e 2 42
e 2 47
e 2 50
e 2 52
e 2 53
e 2 54
e 2 59
e 2 79
e 2 80
e 2 97
e 2 125
e 2 126
e 2 131
e 2 166
e 3 6
e 3 9
e 3 12
e 3 16
e 3 17
e 3 20
e 3 25
e 3 27
e 3 29
e 3 32
e 3 33
e 3 34
e 3 35
e 3 36
e 3 39
e 3 48
e 3 52
e 3 53
e 3 54
e 3 60
e 3 79
e 3 80
e 3 98
e 3 125
e 3 126
e 3 132
e 3 166
e 3 203
e 4 5
e 4 6
e 4 7
e 4 10
e 4 13
e 4 14
e 4 18
e 4 21
e 4 23
e 4 26
e 4 30
e 4 37
e 4 38
e 4 41
e 4 49
e 4 61
e 4 62
e 4 84
e 4 87
e 4 88
e 4 89
e 4 90
e 4 96
e 4 134
e 4 172
e 4 173
e 4 202
e 5 6
e 5 8
e 5 11
e 5 15
e 5 19
e 5 22
e 5 24
e 5 28
e 5 31
e 5 37
e 5 38
e 5 42
e 5 47
e 5 50
e 5 59
e 5 61
e 5 62
e 5 87
e 5 88
e 5 89
e 5 90
e 5 97
e 5 131
e 5 134
e 5 172
e 5 173
e 6 9
e 6 12
e 6 16
e 6 20
e 6 25
e 6 27
e 6 29
e 6 32
e 6 37
e 6 38
e 6 39
e 6 48
e 6 60
e 6 61
e 6 62
e 6 87
e 6 88
e 6 89
e 6 90
e 6 98
e 6 132
e 6 134
e 6 172
e 6 173
e 6 203
e 7 8
e 7 9
e 7 10
e 7 13
e 7 14
e 7 18
e 7 21
e 7 23
e 7 26
e 7 30
e 7 40
e 7 41
e 7 49
e 7 65
e 7 66
e 7 67
e 7 84
e 7 96
e 7 104
e 7 105
e 7 106
e 7 147
e 7 180
e 7 181
e 7 202
e 7 217
e 8 9
e 8 11
e 8 15
e 8 19
e 8 22
e 8 24
e 8 28
e 8 31
e 8 40
e 8 42
e 8 47
e 8 50
e 8 59
e 8 65
e 8 66
e 8 67
e 8 97
e 8 104
e 8 105
e 8 106
e 8 131
e 8 147
e 8 180
e 8 181
e 8 217
e 9 12
e 9 16
e 9 20
e 9 25
e 9 27
e 9 29
e 9 32
e 9 39
e 9 40
e 9 48
e 9 60
e 9 65
e 9 66
e 9 67
e 9 98
e 9 104
e 9 105
e 9 106
e 9 132
e 9 147
e 9 180
e 9 181
e 9 203
e 9 217
e 10 11
e 10 12
e 10 13
e 10 14
e 10 18
e 10 21
e 10 23
e 10 26
e 10 30
e 10 41
e 10 43
e 10 44
e 10 49
e 10 68
e 10 69
e 10 70
e 10 71
e 10 84
e 10 96
e 10 109
e 10 110
e 10 111
e 10 151
e 10 184
e 10 202
e 11 12
e 11 15
e 11 19
e 11 22
e 11 24
e 11 28
e 11 31
e 11 42
e 11 43
e 11 44
e 11 47
e 11 50
e 11 59
e 11 68
e 11 69
e 11 70
e 11 71
e 11 97
e 11 109
e 11 110
e 11 111
e 11 131
e 11 151
e 11 184
e 12 16
e 12 20
e 12 25
e 12 27
e 12 29
e 12 32
e 12 39
e 12 43
e 12 44
e 12 48
e 12 60
e 12 68
e 12 69
e 12 70
e 12 71
e 12 98
e 12 109
e 12 110
e 12 111
e 12 132
e 12 151
e 12 184
e 12 203
e 13 14
e 13 18
e 13 21
e 13 23
e 13 26
e 13 30
e 13 41
e 13 45
e 13 46
e 13 49
e 13 72
e 13 73
e 13 74
e 13 84
e 13 96
e 13 112
e 13 113
e 13 114
e 13 115
e 13 152
e 13 185
e 13 186
e 13 202
e 13 220
e 14 15
e 14 16
e 14 18
e 14 21
e 14 23
e 14 26
e 14 30
e 14 41
e 14 49
e 14 51
e 14 75
e 14 76
e 14 84
e 14 96
e 14 118
e 14 119
e 14 120
e 14 121
e 14 122
e 14 160
e 14 161
e 14 192
e 14 202
e 15 16
e 15 19
e 15 22
e 15 24
e 15 28
e 15 31
e 15 42
e 15 47
e 15 50
e 15 51
e 15 59
e 15 75
e 15 76
e 15 97
e 15 118
e 15 119
e 15 120
e 15 121
e 15 122
e 15 131
e 15 160
e 15 161
e 15 192
e 16 20
e 16 25
e 16 27
e 16 29
e 16 32
e 16 39
e 16 48
e 16 51
e 16 60
e 16 75
e 16 76
e 16 98
e 16 118
e 16 119
e 16 120
e 16 121
e 16 122
e 16 132
e 16 160
e 16 161
e 16 192
e 16 203
e 17 33
e 17 34
e 17 35
e 17 36
e 17 37
e 17 43
e 17 45
e 17 51
e 17 52
e 17 53
e 17 54
e 17 55
e 17 57
e 17 63
e 17 77
e 17 79
e 17 80
e 17 102
e 17 107
e 17 116
e 17 125
e 17 126
e 17 166
e 17 167
e 17 242
e 18 19
e 18 20
e 18 21
e 18 23
e 18 26
e 18 30
e 18 41
e 18 49
e 18 55
e 18 56
e 18 81
e 18 82
e 18 83
e 18 84
e 18 96
e 18 127
e 18 128
e 18 194
e 18 195
e 18 202
e 18 225
e 19 20
e 19 22
e 19 24
e 19 28
e 19 31
e 19 42
e 19 47
e 19 50
e 19 55
e 19 56
e 19 59
e 19 81
e 19 82
e 19 83
e 19 97
e 19 127
e 19 128
e 19 131
e 19 194
e 19 195
e 19 225
e 20 25
e 20 27
e 20 29
e 20 32
e 20 39
e 20 48
e 20 55
e 20 56
e 20 60
e 20 81
e 20 82
e 20 83
e 20 98
e 20 127
e 20 128
e 20 132
e 20 194
e 20 195
e 20 203
e 20 225
e 21 22
e 21 23
e 21 26
e 21 30
e 21 41
e 21 49
e 21 57
e 21 58
e 21 84
e 21 85
e 21 86
e 21 96
e 21 129
e 21 130
e 21 168
e 21 197
e 21 198
e 21 199
e 21 200
e 21 202
e 22 24
e 22 28
e 22 31
e 22 42
e 22 47
e 22 50
e 22 57
e 22 58
e 22 59
e 22 85
e 22 86
e 22 97
e 22 129
e 22 130
e 22 131
e 22 168
e 22 197
e 22 198
e 22 199
e 22 200
e 23 24
e 23 25
e 23 26
e 23 30
e 23 41
e 23 49
e 23 63
e 23 84
e 23 91
e 23 92
e 23 93
e 23 96
e 23 135
e 23 136
e 23 137
e 23 174
e 23 202
e 23 206
e 23 207
e 24 25
e 24 28
e 24 31
e 24 42
e 24 47
e 24 50
e 24 59
e 24 63
e 24 91
e 24 92
e 24 93
e 24 97
e 24 131
e 24 135
e 24 136
e 24 137
e 24 174
e 24 206
e 24 207
e 25 27
e 25 29
e 25 32
e 25 39
e 25 48
e 25 60
e 25 63
e 25 91
e 25 92
e 25 93
e 25 98
e 25 132
e 25 135
e 25 136
e 25 137
e 25 174
e 25 203
e 25 206
e 25 207
e 26 27
e 26 30
e 26 41
e 26 49
e 26 64
e 26 84
e 26 94
e 26 95
e 26 96
e 26 138
e 26 139
e 26 140
e 26 175
e 26 202
e 26 208
e 26 209
e 26 210
e 26 229
e 27 29
e 27 32
e 27 39
e 27 48
e 27 60
e 27 64
e 27 94
e 27 95
e 27 98
e 27 132
e 27 138
e 27 139
e 27 140
e 27 175
e 27 203
e 27 208
e 27 209
e 27 210
e 27 229
e 28 29
e 28 31
e 28 42
e 28 47
e 28 50
e 28 59
e 28 97
e 28 99
e 28 100
e 28 101
e 28 131
e 28 141
e 28 142
e 28 143
e 28 144
e 28 213
e 28 214
e 28 215
e 28 231
e 29 32
e 29 39
e 29 48
e 29 60
e 29 98
e 29 99
e 29 100
e 29 101
e 29 132
e 29 141
e 29 142
e 29 143
e 29 144
e 29 203
e 29 213
e 29 214
e 29 215
e 29 231
e 30 31
e 30 32
e 30 41
e 30 49
e 30 77
e 30 78
e 30 84
e 30 96
e 30 123
e 30 124
e 30 162
e 30 163
e 30 164
e 30 165
e 30 193
e 30 202
e 30 224
e 31 32
e 31 42
e 31 47
e 31 50
e 31 59
e 31 77
e 31 78
e 31 97
e 31 123
e 31 124
e 31 131
e 31 162
e 31 163
e 31 164
e 31 165
e 31 193
e 31 224
e 32 39
e 32 48
e 32 60
e 32 77
e 32 78
e 32 98
e 32 123
e 32 124
e 32 132
e 32 162
e 32 163
e 32 164
e 32 165
e 32 193
e 32 203
e 32 224
e 33 34
e 33 35
e 33 36
e 33 52
e 33 53
e 33 54
e 33 61
e 33 65
e 33 68
e 33 72
e 33 75
e 33 79
e 33 80
e 33 91
e 33 99
e 33 123
e 33 125
e 33 126
e 33 145
e 33 153
e 33 166
e 33 169
e 33 211
e 34 35
e 34 36
e 34 52
e 34 53
e 34 54
e 34 66
e 34 69
e 34 73
e 34 79
e 34 80
e 34 81
e 34 85
e 34 92
e 34 94
e 34 124
e 34 125
e 34 126
e 34 148
e 34 154
e 34 157
e 34 166
e 34 170
e 35 36
e 35 52
e 35 53
e 35 54
e 35 62
e 35 67
e 35 70
e 35 76
e 35 79
e 35 80
e 35 82
e 35 86
e 35 95
e 35 100
e 35 125
e 35 126
e 35 146
e 35 149
e 35 155
e 35 158
e 35 166
e 36 52
e 36 53
e 36 54
e 36 71
e 36 74
e 36 79
e 36 80
e 36 83
e 36 93
e 36 101
e 36 125
e 36 126
e 36 150
e 36 156
e 36 159
e 36 166
e 36 171
e 36 196
e 36 212
e 36 252
e 37 38
e 37 43
e 37 45
e 37 51
e 37 55
e 37 57
e 37 61
e 37 62
e 37 63
e 37 77
e 37 87
e 37 88
e 37 89
e 37 90
e 37 102
e 37 107
e 37 116
e 37 134
e 37 167
e 37 172
e 37 173
e 37 242
e 38 40
e 38 44
e 38 46
e 38 56
e 38 58
e 38 61
e 38 62
e 38 64
e 38 78
e 38 87
e 38 88
e 38 89
e 38 90
e 38 103
e 38 108
e 38 117
e 38 133
e 38 134
e 38 172
e 38 173
e 38 176
e 38 201
e 39 48
e 39 60
e 39 98
e 39 102
e 39 103
e 39 132
e 39 145
e 39 146
e 39 177
e 39 178
e 39 179
e 39 203
e 39 216
e 39 232
e 39 233
e 39 246
e 40 44
e 40 46
e 40 56
e 40 58
e 40 64
e 40 65
e 40 66
e 40 67
e 40 78
e 40 103
e 40 104
e 40 105
e 40 106
e 40 108
e 40 117
e 40 133
e 40 147
e 40 176
e 40 180
e 40 181
e 40 201
e 40 217
e 41 42
e 41 49
e 41 84
e 41 96
e 41 107
e 41 108
e 41 148
e 41 149
e 41 150
e 41 182
e 41 183
e 41 202
e 41 218
e 41 219
e 41 247
e 42 47
e 42 50
e 42 59
e 42 97
e 42 107
e 42 108
e 42 131
e 42 148
e 42 149
e 42 150
e 42 182
e 42 183
e 42 218
e 42 219
e 42 247
e 43 44
e 43 45
e 43 51
e 43 55
e 43 57
e 43 63
e 43 68
e 43 69
e 43 70
e 43 71
e 43 77
e 43 102
e 43 107
e 43 109
e 43 110
e 43 111
e 43 116
e 43 151
e 43 167
e 43 184
e 43 242
e 44 46
e 44 56
e 44 58
e 44 64
e 44 68
e 44 69
e 44 70
e 44 71
e 44 78
e 44 103
e 44 108
e 44 109
e 44 110
e 44 111
e 44 117
e 44 133
e 44 151
e 44 176
e 44 184
e 44 201
e 45 46
e 45 51
e 45 55
e 45 57
e 45 63
e 45 72
e 45 73
e 45 74
e 45 77
e 45 102
e 45 107
e 45 112
e 45 113
e 45 114
e 45 115
e 45 116
e 45 152
e 45 167
e 45 185
e 45 186
e 45 220
e 45 242
e 46 56
e 46 58
e 46 64
e 46 72
e 46 73
e 46 74
e 46 78
e 46 103
e 46 108
e 46 112
e 46 113
e 46 114
e 46 115
e 46 117
e 46 133
e 46 152
e 46 176
e 46 185
e 46 186
e 46 201
e 46 220
e 47 48
e 47 50
e 47 59
e 47 97
e 47 116
e 47 131
e 47 153
e 47 154
e 47 155
e 47 156
e 47 187
e 47 188
e 47 221
e 47 222
e 47 234
e 48 60
e 48 98
e 48 116
e 48 132
e 48 153
e 48 154
e 48 155
e 48 156
e 48 187
e 48 188
e 48 203
e 48 221
e 48 222
e 48 234
e 49 50
e 49 84
e 49 96
e 49 117
e 49 157
e 49 158
e 49 159
e 49 189
e 49 190
e 49 191
e 49 202
e 49 223
e 49 235
e 49 236
e 50 59
e 50 97
e 50 117
e 50 131
e 50 157
e 50 158
e 50 159
e 50 189
e 50 190
e 50 191
e 50 223
e 50 235
e 50 236
e 51 55
e 51 57
e 51 63
e 51 75
e 51 76
e 51 77
e 51 102
e 51 107
e 51 116
e 51 118
e 51 119
e 51 120
e 51 121
e 51 122
e 51 160
e 51 161
e 51 167
e 51 192
e 51 242
e 52 53
e 52 54
e 52 79
e 52 80
e 52 87
e 52 112
e 52 118
e 52 125
e 52 126
e 52 138
e 52 141
e 52 162
e 52 166
e 52 177
e 52 189
e 52 204
e 52 226
e 52 238
e 53 54
e 53 79
e 53 80
e 53 88
e 53 109
e 53 119
e 53 125
e 53 126
e 53 127
e 53 129
e 53 142
e 53 163
e 53 166
e 53 178
e 53 182
e 53 190
e 53 227
e 54 79
e 54 80
e 54 90
e 54 105
e 54 111
e 54 114
e 54 121
e 54 125
e 54 126
e 54 136
e 54 143
e 54 164
e 54 166
e 54 179
e 54 187
e 54 240
e 55 56
e 55 57
e 55 63
e 55 77
e 55 81
e 55 82
e 55 83
e 55 102
e 55 107
e 55 116
e 55 127
e 55 128
e 55 167
e 55 194
e 55 195
e 55 225
e 55 242
e 56 58
e 56 64
e 56 78
e 56 81
e 56 82
e 56 83
e 56 103
e 56 108
e 56 117
e 56 127
e 56 128
e 56 133
e 56 176
e 56 194
e 56 195
e 56 201
e 56 225
e 57 58
e 57 63
e 57 77
e 57 85
e 57 86
e 57 102
e 57 107
e 57 116
e 57 129
e 57 130
e 57 167
e 57 168
e 57 197
e 57 198
e 57 199
e 57 200
e 57 242
e 58 64
e 58 78
e 58 85
e 58 86
e 58 103
e 58 108
e 58 117
e 58 129
e 58 130
e 58 133
e 58 168
e 58 176
e 58 197
e 58 198
e 58 199
e 58 200
e 58 201
e 59 60
e 59 97
e 59 131
e 59 133
e 59 169
e 59 170
e 59 171
e 59 204
e 59 205
e 59 243
e 59 244
e 59 253
e 60 98
e 60 132
e 60 133
e 60 169
e 60 170
e 60 171
e 60 203
e 60 204
e 60 205
e 60 243
e 60 244
e 60 253
e 61 62
e 61 65
e 61 68
e 61 72
e 61 75
e 61 87
e 61 88
e 61 89
e 61 90
e 61 91
e 61 99
e 61 123
e 61 134
e 61 145
e 61 153
e 61 169
e 61 172
e 61 173
e 61 211
e 62 67
e 62 70
e 62 76
e 62 82
e 62 86
e 62 87
e 62 88
e 62 89
e 62 90
e 62 95
e 62 100
e 62 134
e 62 146
e 62 149
e 62 155
e 62 158
e 62 172
e 62 173
e 63 77
e 63 91
e 63 92
e 63 93
e 63 102
e 63 107
e 63 116
e 63 135
e 63 136
e 63 137
e 63 167
e 63 174
e 63 206
e 63 207
e 63 242
e 64 78
e 64 94
e 64 95
e 64 103
e 64 108
e 64 117
e 64 133
e 64 138
e 64 139
e 64 140
e 64 175
e 64 176
e 64 201
e 64 208
e 64 209
e 64 210
e 64 229
e 65 66
e 65 67
e 65 68
e 65 72
e 65 75
e 65 91
e 65 99
e 65 104
e 65 105
e 65 106
e 65 123
e 65 145
e 65 147
e 65 153
e 65 169
e 65 180
e 65 181
e 65 211
e 65 217
e 66 67
e 66 69
e 66 73
e 66 81
e 66 85
e 66 92
e 66 94
e 66 104
e 66 105
e 66 106
e 66 124
e 66 147
e 66 148
e 66 154
e 66 157
e 66 170
e 66 180
e 66 181
e 66 217
e 67 70
e 67 76
e 67 82
e 67 86
e 67 95
e 67 100
e 67 104
e 67 105
e 67 106
e 67 146
e 67 147
e 67 149
e 67 155
e 67 158
e 67 180
e 67 181
e 67 217
e 68 69
e 68 70
e 68 71
e 68 72
e 68 75
e 68 91
e 68 99
e 68 109
e 68 110
e 68 111
e 68 123
e 68 145
e 68 151
e 68 153
e 68 169
e 68 184
e 68 211
e 69 70
e 69 71
e 69 73
e 69 81
e 69 85
e 69 92
e 69 94
e 69 109
e 69 110
e 69 111
e 69 124
e 69 148
e 69 151
e 69 154
e 69 157
e 69 170
e 69 184
e 70 71
e 70 76
e 70 82
e 70 86
e 70 95
e 70 100
e 70 109
e 70 110
e 70 111
e 70 146
e 70 149
e 70 151
e 70 155
e 70 158
e 70 184
e 71 74
e 71 83
e 71 93
e 71 101
e 71 109
e 71 110
e 71 111
e 71 150
e 71 151
e 71 156
e 71 159
e 71 171
e 71 184
e 71 196
e 71 212
e 71 252
e 72 73
e 72 74
e 72 75
e 72 91
e 72 99
e 72 112
e 72 113
e 72 114
e 72 115
e 72 123
e 72 145
e 72 152
e 72 153
e 72 169
e 72 185
e 72 186
e 72 211
e 72 220
e 73 74
e 73 81
e 73 85
e 73 92
e 73 94
e 73 112
e 73 113
e 73 114
e 73 115
e 73 124
e 73 148
e 73 152
e 73 154
e 73 157
e 73 170
e 73 185
e 73 186
e 73 220
e 74 83
e 74 93
e 74 101
e 74 112
e 74 113
e 74 114
e 74 115
e 74 150
e 74 152
e 74 156
e 74 159
e 74 171
e 74 185
e 74 186
e 74 196
e 74 212
e 74 220
e 74 252
e 75 76
e 75 91
e 75 99
e 75 118
e 75 119
e 75 120
e 75 121
e 75 122
e 75 123
e 75 145
e 75 153
e 75 160
e 75 161
e 75 169
e 75 192
e 75 211
e 76 82
e 76 86
e 76 95
e 76 100
e 76 118
e 76 119
e 76 120
e 76 121
e 76 122
e 76 146
e 76 149
e 76 155
e 76 158
e 76 160
e 76 161
e 76 192
e 77 78
e 77 102
e 77 107
e 77 116
e 77 123
e 77 124
e 77 162
e 77 163
e 77 164
e 77 165
e 77 167
e 77 193
e 77 224
e 77 242
e 78 103
e 78 108
e 78 117
e 78 123
e 78 124
e 78 133
e 78 162
e 78 163
e 78 164
e 78 165
e 78 176
e 78 193
e 78 201
e 78 224
e 79 80
e 79 125
e 79 126
e 79 134
e 79 147
e 79 152
e 79 160
e 79 166
e 79 168
e 79 218
e 79 221
e 79 245
e 79 251
e 79 257
e 80 125
e 80 126
e 80 151
e 80 161
e 80 166
e 80 174
e 80 175
e 80 193
e 80 216
e 80 219
e 80 222
e 80 223
e 80 237
e 81 82
e 81 83
e 81 85
e 81 92
e 81 94
e 81 124
e 81 127
e 81 128
e 81 148
e 81 154
e 81 157
e 81 170
e 81 194
e 81 195
e 81 225
e 82 83
e 82 86
e 82 95
e 82 100
e 82 127
e 82 128
e 82 146
e 82 149
e 82 155
e 82 158
e 82 194
e 82 195
e 82 225
e 83 93
e 83 101
e 83 127
e 83 128
e 83 150
e 83 156
e 83 159
e 83 171
e 83 194
e 83 195
e 83 196
e 83 212
e 83 225
e 83 252
e 84 96
e 84 167
e 84 196
e 84 202
e 84 226
e 84 227
e 84 228
e 84 237
e 84 248
e 84 249
e 84 250
e 85 86
e 85 92
e 85 94
e 85 124
e 85 129
e 85 130
e 85 148
e 85 154
e 85 157
e 85 168
e 85 170
e 85 197
e 85 198
e 85 199
e 85 200
e 86 95
e 86 100
e 86 129
e 86 130
e 86 146
e 86 149
e 86 155
e 86 158
e 86 168
e 86 197
e 86 198
e 86 199
e 86 200
e 87 88
e 87 89
e 87 90
e 87 112
e 87 118
e 87 134
e 87 138
e 87 141
e 87 162
e 87 172
e 87 173
e 87 177
e 87 189
e 87 204
e 87 226
e 87 238
e 88 89
e 88 90
e 88 109
e 88 119
e 88 127
e 88 129
e 88 134
e 88 142
e 88 163
e 88 172
e 88 173
e 88 178
e 88 182
e 88 190
e 88 227
e 89 90
e 89 104
e 89 110
e 89 113
e 89 120
e 89 128
e 89 130
e 89 134
e 89 135
e 89 139
e 89 172
e 89 173
e 89 228
e 89 230
e 89 239
e 90 105
e 90 111
e 90 114
e 90 121
e 90 134
e 90 136
e 90 143
e 90 164
e 90 172
e 90 173
e 90 179
e 90 187
e 90 240
e 91 92
e 91 93
e 91 99
e 91 123
e 91 135
e 91 136
e 91 137
e 91 145
e 91 153
e 91 169
e 91 174
e 91 206
e 91 207
e 91 211
e 92 93
e 92 94
e 92 124
e 92 135
e 92 136
e 92 137
e 92 148
e 92 154
e 92 157
e 92 170
e 92 174
e 92 206
e 92 207
e 93 101
e 93 135
e 93 136
e 93 137
e 93 150
e 93 156
e 93 159
e 93 171
e 93 174
e 93 196
e 93 206
e 93 207
e 93 212
e 93 252
e 94 95
e 94 124
e 94 138
e 94 139
e 94 140
e 94 148
e 94 154
e 94 157
e 94 170
e 94 175
e 94 208
e 94 209
e 94 210
e 94 229
e 95 100
e 95 138
e 95 139
e 95 140
e 95 146
e 95 149
e 95 155
e 95 158
e 95 175
e 95 208
e 95 209
e 95 210
e 95 229
e 96 97
e 96 98
e 96 176
e 96 202
e 96 211
e 96 212
e 96 230
e 96 245
e 96 254
e 96 255
e 97 98
e 97 131
e 97 176
e 97 211
e 97 212
e 97 230
e 97 245
e 97 254
e 97 255
e 98 132
e 98 176
e 98 203
e 98 211
e 98 212
e 98 230
e 98 245
e 98 254
e 98 255
e 99 100
e 99 101
e 99 123
e 99 141
e 99 142
e 99 143
e 99 144
e 99 145
e 99 153
e 99 169
e 99 211
e 99 213
e 99 214
e 99 215
e 99 231
e 100 101
e 100 141
e 100 142
e 100 143
e 100 144
e 100 146
e 100 149
e 100 155
e 100 158
e 100 213
e 100 214
e 100 215
e 100 231
e 101 141
e 101 142
e 101 143
e 101 144
e 101 150
e 101 156
e 101 159
e 101 171
e 101 196
e 101 212
e 101 213
e 101 214
e 101 215
e 101 231
e 101 252
e 102 103
e 102 107
e 102 116
e 102 145
e 102 146
e 102 167
e 102 177
e 102 178
e 102 179
e 102 216
e 102 232
e 102 233
e 102 242
e 102 246
e 103 108
e 103 117
e 103 133
e 103 145
e 103 146
e 103 176
e 103 177
e 103 178
e 103 179
e 103 201
e 103 216
e 103 232
e 103 233
e 103 246
e 104 105
e 104 106
e 104 110
e 104 113
e 104 120
e 104 128
e 104 130
e 104 135
e 104 139
e 104 147
e 104 180
e 104 181
e 104 217
e 104 228
e 104 230
e 104 239
e 105 106
e 105 111
e 105 114
e 105 121
e 105 136
e 105 143
e 105 147
e 105 164
e 105 179
e 105 180
e 105 181
e 105 187
e 105 217
e 105 240
e 106 115
e 106 122
e 106 137
e 106 140
e 106 144
e 106 147
e 106 165
e 106 180
e 106 181
e 106 183
e 106 188
e 106 191
e 106 205
e 106 217
e 106 241
e 107 108
e 107 116
e 107 148
e 107 149
e 107 150
e 107 167
e 107 182
e 107 183
e 107 218
e 107 219
e 107 242
e 107 247
e 108 117
e 108 133
e 108 148
e 108 149
e 108 150
e 108 176
e 108 182
e 108 183
e 108 201
e 108 218
e 108 219
e 108 247
e 109 110
e 109 111
e 109 119
e 109 127
e 109 129
e 109 142
e 109 151
e 109 163
e 109 178
e 109 182
e 109 184
e 109 190
e 109 227
e 110 111
e 110 113
e 110 120
e 110 128
e 110 130
e 110 135
e 110 139
e 110 151
e 110 184
e 110 228
e 110 230
e 110 239
e 111 114
e 111 121
e 111 136
e 111 143
e 111 151
e 111 164
e 111 179
e 111 184
e 111 187
e 111 240
e 112 113
e 112 114
e 112 115
e 112 118
e 112 138
e 112 141
e 112 152
e 112 162
e 112 177
e 112 185
e 112 186
e 112 189
e 112 204
e 112 220
e 112 226
e 112 238
e 113 114
e 113 115
e 113 120
e 113 128
e 113 130
e 113 135
e 113 139
e 113 152
e 113 185
e 113 186
e 113 220
e 113 228
e 113 230
e 113 239
e 114 115
e 114 121
e 114 136
e 114 143
e 114 152
e 114 164
e 114 179
e 114 185
e 114 186
e 114 187
e 114 220
e 114 240
e 115 122
e 115 137
e 115 140
e 115 144
e 115 152
e 115 165
e 115 183
e 115 185
e 115 186
e 115 188
e 115 191
e 115 205
e 115 220
e 115 241
e 116 153
e 116 154
e 116 155
e 116 156
e 116 167
e 116 187
e 116 188
e 116 221
e 116 222
e 116 234
e 116 242
e 117 133
e 117 157
e 117 158
e 117 159
e 117 176
e 117 189
e 117 190
e 117 191
e 117 201
e 117 223
e 117 235
e 117 236
e 118 119
e 118 120
e 118 121
e 118 122
e 118 138
e 118 141
e 118 160
e 118 161
e 118 162
e 118 177
e 118 189
e 118 192
e 118 204
e 118 226
e 118 238
e 119 120
e 119 121
e 119 122
e 119 127
e 119 129
e 119 142
e 119 160
e 119 161
e 119 163
e 119 178
e 119 182
e 119 190
e 119 192
e 119 227
e 120 121
e 120 122
e 120 128
e 120 130
e 120 135
e 120 139
e 120 160
e 120 161
e 120 192
e 120 228
e 120 230
e 120 239
e 121 122
e 121 136
e 121 143
e 121 160
e 121 161
e 121 164
e 121 179
e 121 187
e 121 192
e 121 240
e 122 137
e 122 140
e 122 144
e 122 160
e 122 161
e 122 165
e 122 183
e 122 188
e 122 191
e 122 192
e 122 205
e 122 241
e 123 124
e 123 145
e 123 153
e 123 162
e 123 163
e 123 164
e 123 165
e 123 169
e 123 193
e 123 211
e 123 224
e 124 148
e 124 154
e 124 157
e 124 162
e 124 163
e 124 164
e 124 165
e 124 170
e 124 193
e 124 224
e 125 126
e 125 166
e 125 194
e 125 197
e 125 208
e 125 232
e 125 234
e 125 235
e 125 243
e 125 248
e 125 256
e 126 166
e 126 172
e 126 180
e 126 192
e 126 195
e 126 198
e 126 209
e 126 213
e 126 244
e 126 254
e 127 128
e 127 129
e 127 142
e 127 163
e 127 178
e 127 182
e 127 190
e 127 194
e 127 195
e 127 225
e 127 227
e 128 130
e 128 135
e 128 139
e 128 194
e 128 195
e 128 225
e 128 228
e 128 230
e 128 239
e 129 130
e 129 142
e 129 163
e 129 168
e 129 178
e 129 182
e 129 190
e 129 197
e 129 198
e 129 199
e 129 200
e 129 227
e 130 135
e 130 139
e 130 168
e 130 197
e 130 198
e 130 199
e 130 200
e 130 228
e 130 230
e 130 239
e 131 132
e 131 201
e 131 238
e 131 239
e 131 240
e 131 241
e 131 251
e 131 256
e 132 201
e 132 203
e 132 238
e 132 239
e 132 240
e 132 241
e 132 251
e 132 256
e 133 169
e 133 170
e 133 171
e 133 176
e 133 201
e 133 204
e 133 205
e 133 243
e 133 244
e 133 253
e 134 147
e 134 152
e 134 160
e 134 168
e 134 172
e 134 173
e 134 218
e 134 221
e 134 245
e 134 251
e 134 257
e 135 136
e 135 137
e 135 139
e 135 174
e 135 206
e 135 207
e 135 228
e 135 230
e 135 239
e 136 137
e 136 143
e 136 164
e 136 174
e 136 179
e 136 187
e 136 206
e 136 207
e 136 240
e 137 140
e 137 144
e 137 165
e 137 174
e 137 183
e 137 188
e 137 191
e 137 205
e 137 206
e 137 207
e 137 241
e 138 139
e 138 140
e 138 141
e 138 162
e 138 175
e 138 177
e 138 189
e 138 204
e 138 208
e 138 209
e 138 210
e 138 226
e 138 229
e 138 238
e 139 140
e 139 175
e 139 208
e 139 209
e 139 210
e 139 228
e 139 229
e 139 230
e 139 239
e 140 144
e 140 165
e 140 175
e 140 183
e 140 188
e 140 191
e 140 205
e 140 208
e 140 209
e 140 210
e 140 229
e 140 241
e 141 142
e 141 143
e 141 144
e 141 162
e 141 177
e 141 189
e 141 204
e 141 213
e 141 214
e 141 215
e 141 226
e 141 231
e 141 238
e 142 143
e 142 144
e 142 163
e 142 178
e 142 182
e 142 190
e 142 213
e 142 214
e 142 215
e 142 227
e 142 231
e 143 144
e 143 164
e 143 179
e 143 187
e 143 213
e 143 214
e 143 215
e 143 231
e 143 240
e 144 165
e 144 183
e 144 188
e 144 191
e 144 205
e 144 213
e 144 214
e 144 215
e 144 231
e 144 241
e 145 146
e 145 153
e 145 169
e 145 177
e 145 178
e 145 179
e 145 211
e 145 216
e 145 232
e 145 233
e 145 246
e 146 149
e 146 155
e 146 158
e 146 177
e 146 178
e 146 179
e 146 216
e 146 232
e 146 233
e 146 246
e 147 152
e 147 160
e 147 168
e 147 180
e 147 181
e 147 217
e 147 218
e 147 221
e 147 245
e 147 251
e 147 257
e 148 149
e 148 150
e 148 154
e 148 157
e 148 170
e 148 182
e 148 183
e 148 218
e 148 219
e 148 247
e 149 150
e 149 155
e 149 158
e 149 182
e 149 183
e 149 218
e 149 219
e 149 247
e 150 156
e 150 159
e 150 171
e 150 182
e 150 183
e 150 196
e 150 212
e 150 218
e 150 219
e 150 247
e 150 252
e 151 161
e 151 174
e 151 175
e 151 184
e 151 193
e 151 216
e 151 219
e 151 222
e 151 223
e 151 237
e 152 160
e 152 168
e 152 185
e 152 186
e 152 218
e 152 220
e 152 221
e 152 245
e 152 251
e 152 257
e 153 154
e 153 155
e 153 156
e 153 169
e 153 187
e 153 188
e 153 211
e 153 221
e 153 222
e 153 234
e 154 155
e 154 156
e 154 157
e 154 170
e 154 187
e 154 188
e 154 221
e 154 222
e 154 234
e 155 156
e 155 158
e 155 187
e 155 188
e 155 221
e 155 222
e 155 234
e 156 159
e 156 171
e 156 187
e 156 188
e 156 196
e 156 212
e 156 221
e 156 222
e 156 234
e 156 252
e 157 158
e 157 159
e 157 170
e 157 189
e 157 190
e 157 191
e 157 223
e 157 235
e 157 236
e 158 159
e 158 189
e 158 190
e 158 191
e 158 223
e 158 235
e 158 236
e 159 171
e 159 189
e 159 190
e 159 191
e 159 196
e 159 212
e 159 223
e 159 235
e 159 236
e 159 252
e 160 161
e 160 168
e 160 192
e 160 218
e 160 221
e 160 245
e 160 251
e 160 257
e 161 174
e 161 175
e 161 192
e 161 193
e 161 216
e 161 219
e 161 222
e 161 223
e 161 237
e 162 163
e 162 164
e 162 165
e 162 177
e 162 189
e 162 193
e 162 204
e 162 224
e 162 226
e 162 238
e 163 164
e 163 165
e 163 178
e 163 182
e 163 190
e 163 193
e 163 224
e 163 227
e 164 165
e 164 179
e 164 187
e 164 193
e 164 224
e 164 240
e 165 183
e 165 188
e 165 191
e 165 193
e 165 205
e 165 224
e 165 241
e 166 217
e 166 220
e 166 225
e 166 229
e 166 231
e 166 246
e 166 247
e 166 253
e 167 196
e 167 226
e 167 227
e 167 228
e 167 237
e 167 242
e 167 248
e 167 249
e 167 250
e 168 197
e 168 198
e 168 199
e 168 200
e 168 218
e 168 221
e 168 245
e 168 251
e 168 257
e 169 170
e 169 171
e 169 204
e 169 205
e 169 211
e 169 243
e 169 244
e 169 253
e 170 171
e 170 204
e 170 205
e 170 243
e 170 244
e 170 253
e 171 196
e 171 204
e 171 205
e 171 212
e 171 243
e 171 244
e 171 252
e 171 253
e 172 173
e 172 180
e 172 192
e 172 195
e 172 198
e 172 209
e 172 213
e 172 244
e 172 254
e 173 181
e 173 186
e 173 200
e 173 207
e 173 215
e 173 236
e 173 250
e 173 255
e 173 259
e 174 175
e 174 193
e 174 206
e 174 207
e 174 216
e 174 219
e 174 222
e 174 223
e 174 237
e 175 193
e 175 208
e 175 209
e 175 210
e 175 216
e 175 219
e 175 222
e 175 223
e 175 229
e 175 237
e 176 201
e 176 211
e 176 212
e 176 230
e 176 245
e 176 254
e 176 255
e 177 178
e 177 179
e 177 189
e 177 204
e 177 216
e 177 226
e 177 232
e 177 233
e 177 238
e 177 246
e 178 179
e 178 182
e 178 190
e 178 216
e 178 227
e 178 232
e 178 233
e 178 246
e 179 187
e 179 216
e 179 232
e 179 233
e 179 240
e 179 246
e 180 181
e 180 192
e 180 195
e 180 198
e 180 209
e 180 213
e 180 217
e 180 244
e 180 254
e 181 186
e 181 200
e 181 207
e 181 215
e 181 217
e 181 236
e 181 250
e 181 255
e 181 259
e 182 183
e 182 190
e 182 218
e 182 219
e 182 227
e 182 247
e 183 188
e 183 191
e 183 205
e 183 218
e 183 219
e 183 241
e 183 247
e 184 185
e 184 199
e 184 206
e 184 210
e 184 214
e 184 224
e 184 233
e 184 249
e 184 258
e 185 186
e 185 199
e 185 206
e 185 210
e 185 214
e 185 220
e 185 224
e 185 233
e 185 249
e 185 258
e 186 200
e 186 207
e 186 215
e 186 220
e 186 236
e 186 250
e 186 255
e 186 259
e 187 188
e 187 221
e 187 222
e 187 234
e 187 240
e 188 191
e 188 205
e 188 221
e 188 222
e 188 234
e 188 241
e 189 190
e 189 191
e 189 204
e 189 223
e 189 226
e 189 235
e 189 236
e 189 238
e 190 191
e 190 223
e 190 227
e 190 235
e 190 236
e 191 205
e 191 223
e 191 235
e 191 236
e 191 241
e 192 195
e 192 198
e 192 209
e 192 213
e 192 244
e 192 254
e 193 216
e 193 219
e 193 222
e 193 223
e 193 224
e 193 237
e 194 195
e 194 197
e 194 208
e 194 225
e 194 232
e 194 234
e 194 235
e 194 243
e 194 248
e 194 256
e 195 198
e 195 209
e 195 213
e 195 225
e 195 244
e 195 254
e 196 212
e 196 226
e 196 227
e 196 228
e 196 237
e 196 248
e 196 249
e 196 250
e 196 252
e 197 198
e 197 199
e 197 200
e 197 208
e 197 232
e 197 234
e 197 235
e 197 243
e 197 248
e 197 256
e 198 199
e 198 200
e 198 209
e 198 213
e 198 244
e 198 254
e 199 200
e 199 206
e 199 210
e 199 214
e 199 224
e 199 233
e 199 249
e 199 258
e 200 207
e 200 215
e 200 236
e 200 250
e 200 255
e 200 259
e 201 238
e 201 239
e 201 240
e 201 241
e 201 251
e 201 256
e 202 203
e 202 242
e 202 252
e 202 257
e 202 258
e 202 259
e 203 242
e 203 252
e 203 257
e 203 258
e 203 259
e 204 205
e 204 226
e 204 238
e 204 243
e 204 244
e 204 253
e 205 241
e 205 243
e 205 244
e 205 253
e 206 207
e 206 210
e 206 214
e 206 224
e 206 233
e 206 249
e 206 258
e 207 215
e 207 236
e 207 250
e 207 255
e 207 259
e 208 209
e 208 210
e 208 229
e 208 232
e 208 234
e 208 235
e 208 243
e 208 248
e 208 256
e 209 210
e 209 213
e 209 229
e 209 244
e 209 254
e 210 214
e 210 224
e 210 229
e 210 233
e 210 249
e 210 258
e 211 212
e 211 230
e 211 245
e 211 254
e 211 255
e 212 230
e 212 245
e 212 252
e 212 254
e 212 255
e 213 214
e 213 215
e 213 231
e 213 244
e 213 254
e 214 215
e 214 224
e 214 231
e 214 233
e 214 249
e 214 258
e 215 231
e 215 236
e 215 250
e 215 255
e 215 259
e 216 219
e 216 222
e 216 223
e 216 232
e 216 233
e 216 237
e 216 246
e 217 220
e 217 225
e 217 229
e 217 231
e 217 246
e 217 247
e 217 253
e 218 219
e 218 221
e 218 245
e 218 247
e 218 251
e 218 257
e 219 222
e 219 223
e 219 237
e 219 247
e 220 225
e 220 229
e 220 231
e 220 246
e 220 247
e 220 253
e 221 222
e 221 234
e 221 245
e 221 251
e 221 257
e 222 223
e 222 234
e 222 237
e 223 235
e 223 236
e 223 237
e 224 233
e 224 249
e 224 258
e 225 229
e 225 231
e 225 246
e 225 247
e 225 253
e 226 227
e 226 228
e 226 237
e 226 238
e 226 248
e 226 249
e 226 250
e 227 228
e 227 237
e 227 248
e 227 249
e 227 250
e 228 230
e 228 237
e 228 239
e 228 248
e 228 249
e 228 250
e 229 231
e 229 246
e 229 247
e 229 253
e 230 239
e 230 245
e 230 254
e 230 255
e 231 246
e 231 247
e 231 253
e 232 233
e 232 234
e 232 235
e 232 243
e 232 246
e 232 248
e 232 256
e 233 246
e 233 249
e 233 258
e 234 235
e 234 243
e 234 248
e 234 256
e 235 236
e 235 243
e 235 248
e 235 256
e 236 250
e 236 255
e 236 259
e 237 248
e 237 249
e 237 250
e 238 239
e 238 240
e 238 241
e 238 251
e 238 256
e 239 240
e 239 241
e 239 251
e 239 256
e 240 241
e 240 251
e 240 256
e 241 251
e 241 256
e 242 252
e 242 257
e 242 258
e 242 259
e 243 244
e 243 248
e 243 253
e 243 256
e 244 253
e 244 254
e 245 251
e 245 254
e 245 255
e 245 257
e 246 247
e 246 253
e 247 253
e 248 249
e 248 250
e 248 256
e 249 250
e 249 258
e 250 255
e 250 259
e 251 256
e 251 257
e 252 257
e 252 258
e 252 259
e 254 255
e 255 259
e 257 258
e 257 259
e 258 259
